language Essence 1.3

letting capacity be
        function(1 --> 5, 2 --> 11, 3 --> 9, 4 --> 7, 5 --> 4, 6 --> 8, 7 --> 9,
                 8 --> 10, 9 --> 3, 10 --> 11, 11 --> 11, 12 --> 11, 13 --> 11, 14 --> 6)
letting crew be
        function(1 --> 5, 2 --> 3, 3 --> 8, 4 --> 4, 5 --> 3, 6 --> 6, 7 --> 2, 8 --> 9,
                 9 --> 1, 10 --> 6, 11 --> 11, 12 --> 11, 13 --> 11, 14 --> 4)
letting n_periods be 17

letting n_upper be 11
letting n_boats be 14
